; benchmark generated from python API
(set-info :status unknown)
(declare-datatypes ((RealState 0)) (((RMk1 (rval1 Real)) (RMk2 (rval2 Real)))))
 (assert
 (forall ((|v11:0| Real) )(exists ((|v10:1_st| RealState) (val!2106 Real) )(forall ((|v9:2| Real) )(exists ((|v8:3_st| RealState) (val!2107 Real) )(forall ((|v7:4| Real) )(exists ((|v6:5_st| RealState) (val!2108 Real) )(forall ((|v5:6| Real) )(exists ((|v4:7_st| RealState) (val!2109 Real) )(forall ((|v3:8| Real) )(exists ((|v2:9_st| RealState) (val!2110 Real) )(forall ((|v1:10| Real) )(exists ((|v0:11_st| RealState) (val!2111 Real) )(let ((?x314 (rval2 |v4:7_st|)))
 (let ((?x2541 (* 5.0 ?x314)))
 (let ((?x1021 (+ (+ (+ (* 18.0 (rval2 |v6:5_st|)) (* (- 14.0) |v5:6|)) ?x2541) (* (- 9.0) |v1:10|))))
 (let ((?x1689 (- 11.0)))
 (let ((?x687 (* ?x1689 |v7:4|)))
 (let ((?x3118 (+ (+ (+ (* (- 6.0) (rval2 |v10:1_st|)) (* (- 1.0) |v5:6|)) ?x687) (* (- 17.0) (rval2 |v8:3_st|)))))
 (let ((?x2377 (rval2 |v6:5_st|)))
 (let ((?x2106 (- 5.0)))
 (let ((?x93 (* ?x2106 ?x2377)))
 (let (($x1748 (<= (+ (+ (+ (* ?x1689 |v5:6|) (* 6.0 ?x2377)) (* (- 1.0) |v5:6|)) ?x93) ?x1689)))
 (let ((?x1541 (- 3.0)))
 (let ((?x778 (+ (+ (+ (* 15.0 ?x2377) (* 8.0 ?x2377)) (* (- 14.0) |v7:4|)) |v3:8|)))
 (let (($x1052 (or (or (<= ?x778 ?x1541) $x1748) (or (<= ?x3118 16.0) (<= ?x1021 3.0)))))
 (let ((?x2859 (rval2 |v10:1_st|)))
 (let ((?x2970 (* ?x2106 ?x2859)))
 (let ((?x1369 (+ (+ (+ (* 8.0 |v1:10|) (* (- 18.0) |v5:6|)) (* (- 17.0) |v5:6|)) ?x2970)))
 (let ((?x1471 (- 9.0)))
 (let ((?x2460 (* ?x1471 ?x2377)))
 (let ((?x848 (+ (+ (+ (* (- 16.0) |v7:4|) (* 2.0 |v11:0|)) (* (- 4.0) ?x2377)) ?x2460)))
 (let ((?x29 (- 6.0)))
 (let ((?x861 (* 5.0 |v7:4|)))
 (let ((?x2604 (+ (+ (+ (* (- 1.0) |v11:0|) (* 11.0 ?x2859)) (* 19.0 |v1:10|)) ?x861)))
 (let ((?x889 (* 15.0 |v3:8|)))
 (let (($x504 (<= (+ (+ (+ (* (- 8.0) ?x2377) ?x2460) (* 10.0 |v7:4|)) ?x889) 13.0)))
 (let (($x55 (and (or (and $x504 (<= ?x2604 ?x29)) (or (<= ?x848 10.0) (<= ?x1369 ?x1541))) $x1052)))
 (let ((?x1409 (+ (+ (+ (* 3.0 ?x2377) (* ?x29 (rval2 |v2:9_st|))) (* 14.0 ?x2377)) (* ?x2106 |v11:0|))))
 (let ((?x195 (- 7.0)))
 (let ((?x1759 (* ?x195 |v3:8|)))
 (let (($x1778 (<= (+ (+ (+ ?x1759 (* (- 18.0) (rval2 |v0:11_st|))) (* 19.0 |v9:2|)) ?x1759) 1.0)))
 (let ((?x2020 (+ (+ (+ (* 2.0 (rval2 |v2:9_st|)) (* (- 16.0) ?x2377)) (* 13.0 |v11:0|)) ?x2541)))
 (let ((?x267 (* 14.0 ?x2377)))
 (let ((?x1502 (+ (+ (+ (* 5.0 |v11:0|) (* 15.0 |v7:4|)) (* (- 1.0) (rval2 |v8:3_st|))) ?x267)))
 (let (($x918 (or (or (<= ?x1502 9.0) (<= ?x2020 20.0)) (or $x1778 (<= ?x1409 18.0)))))
 (let ((?x2092 (+ (+ (+ (* 18.0 ?x314) (* 9.0 |v7:4|)) (* ?x195 (rval2 |v8:3_st|))) (* 13.0 (rval2 |v8:3_st|)))))
 (let ((?x1933 (- 12.0)))
 (let ((?x1245 (rval2 |v0:11_st|)))
 (let ((?x89 (* 19.0 ?x1245)))
 (let (($x2644 (or (<= (+ (+ (+ ?x861 (* 15.0 |v7:4|)) (* 16.0 ?x314)) ?x89) ?x1933) (<= ?x2092 ?x195))))
 (let ((?x2863 (+ (+ (+ (* 12.0 |v1:10|) (* (- 15.0) (rval2 |v2:9_st|))) (* 3.0 |v5:6|)) (* (- 2.0) ?x1245))))
 (let ((?x1852 (- 1.0)))
 (let ((?x186 (* 10.0 ?x314)))
 (let (($x1026 (<= (+ (+ (+ ?x2460 (* (- 17.0) |v5:6|)) (* 9.0 |v9:2|)) ?x186) ?x1852)))
 (let ((?x1183 (+ (+ (+ (* 18.0 (rval2 |v2:9_st|)) ?x314) (* ?x1852 ?x2377)) (* ?x2106 |v9:2|))))
 (let ((?x2028 (- 14.0)))
 (let ((?x798 (+ (+ (+ (* 13.0 ?x1245) (* ?x29 ?x1245)) (* 2.0 |v1:10|)) (* (- 17.0) ?x314))))
 (let ((?x724 (- 15.0)))
 (let ((?x3034 (* ?x1933 ?x1245)))
 (let (($x2936 (<= (+ (+ (+ (* (- 17.0) |v3:8|) (* ?x1689 |v3:8|)) (* ?x1471 ?x2859)) ?x3034) ?x724)))
 (let ((?x1805 (+ (+ (+ (* 2.0 (rval2 |v2:9_st|)) (* (- 18.0) ?x2859)) (* 10.0 ?x1245)) (* (- 10.0) |v7:4|))))
 (let ((?x113 (- 8.0)))
 (let ((?x2220 (- 17.0)))
 (let ((?x1886 (* ?x2220 |v5:6|)))
 (let (($x273 (<= (+ (+ (+ (* 4.0 ?x2377) (* 19.0 ?x314)) (* 17.0 |v1:10|)) ?x1886) ?x113)))
 (let ((?x430 (* 6.0 ?x1245)))
 (let ((?x2379 (+ (+ (+ (* 6.0 |v9:2|) (* 13.0 ?x314)) (* ?x2106 (rval2 |v2:9_st|))) ?x430)))
 (let ((?x1417 (* 12.0 ?x314)))
 (let (($x977 (<= (+ (+ (+ (* ?x1689 ?x1245) (* 15.0 ?x2377)) (* (- 16.0) ?x1245)) ?x1417) ?x1689)))
 (let (($x507 (or (or (or $x977 (<= ?x2379 5.0)) (and $x273 (<= ?x1805 ?x2028))) (and (and $x2936 (<= ?x798 ?x2028)) (or (<= ?x1183 12.0) $x1026)))))
 (let ((?x1633 (+ (+ (+ (* 15.0 ?x2377) ?x3034) (* 8.0 ?x2859)) (* (- 20.0) ?x2377))))
 (let ((?x2638 (* 12.0 |v5:6|)))
 (let (($x1102 (<= (+ (+ (+ (* ?x1689 |v3:8|) (* 6.0 |v11:0|)) (* 9.0 ?x1245)) ?x2638) 8.0)))
 (let ((?x126 (+ (+ (+ (* 20.0 |v11:0|) (* 0.0 ?x1245)) (* 20.0 ?x2377)) (* ?x195 |v1:10|))))
 (let ((?x2847 (* 7.0 |v3:8|)))
 (let (($x990 (<= (+ (+ (+ (* ?x2106 |v1:10|) (* ?x113 |v5:6|)) (* 18.0 |v5:6|)) ?x2847) ?x724)))
 (let ((?x2456 (+ (+ (+ (* (- 18.0) ?x2377) (* ?x1852 ?x2377)) (* 7.0 |v5:6|)) (* (- 10.0) |v5:6|))))
 (let ((?x520 (- 13.0)))
 (let ((?x1020 (* ?x520 ?x2377)))
 (let (($x2883 (<= (+ (+ (+ (* 13.0 |v3:8|) (* ?x1933 ?x314)) (* ?x1933 |v7:4|)) ?x1020) 20.0)))
 (let ((?x805 (- 20.0)))
 (let ((?x2961 (* 8.0 |v3:8|)))
 (let ((?x1617 (+ (+ (* 11.0 (rval2 |v8:3_st|)) (* 2.0 (rval2 |v2:9_st|))) (* ?x2028 |v11:0|))))
 (let ((?x2714 (+ (+ (+ (* (- 4.0) ?x1245) (* (- 2.0) |v1:10|)) (* ?x2028 |v1:10|)) (* ?x1689 |v11:0|))))
 (let (($x1349 (or (or (<= ?x2714 ?x2028) (<= (+ ?x1617 ?x2961) ?x805)) (and $x2883 (<= ?x2456 13.0)))))
 (let (($x2443 (and (or $x1349 (or (and $x990 (<= ?x126 ?x1471)) (or $x1102 (<= ?x1633 ?x195)))) $x507)))
 (let ((?x157 (* 13.0 |v3:8|)))
 (let (($x3061 (<= (+ (+ (+ (* 6.0 (rval2 |v8:3_st|)) (* ?x195 |v7:4|)) ?x687) ?x157) 4.0)))
 (let (($x915 (<= (+ (+ (+ (* 4.0 |v1:10|) |v9:2|) (* 16.0 |v5:6|)) (* ?x805 |v1:10|)) 0.0)))
 (let ((?x1313 (+ (+ (+ (* ?x29 ?x314) (* 6.0 |v7:4|)) (* 7.0 ?x2377)) (* ?x1933 |v5:6|))))
 (let ((?x540 (- 4.0)))
 (let ((?x2496 (* 4.0 ?x1245)))
 (let ((?x337 (+ (+ (+ (* ?x2028 ?x314) (* ?x1852 (rval2 |v2:9_st|))) (* 16.0 ?x2377)) ?x2496)))
 (let ((?x1160 (+ (+ (+ (* ?x113 |v9:2|) (* (- 16.0) (rval2 |v2:9_st|))) (* 10.0 |v3:8|)) (* 0.0 ?x314))))
 (let ((?x2126 (rval2 |v2:9_st|)))
 (let ((?x300 (* 15.0 ?x2126)))
 (let (($x1663 (<= (+ (+ (+ (* 19.0 |v3:8|) (* ?x29 |v3:8|)) (* 8.0 |v7:4|)) ?x300) ?x1852)))
 (let ((?x1225 (+ (+ (+ (* ?x1852 |v3:8|) (* 3.0 ?x2377)) (* 17.0 |v5:6|)) (* 12.0 ?x2126))))
 (let (($x48 (<= (+ (+ (+ (* ?x805 ?x314) (* (- 2.0) ?x2377)) ?x2970) ?x1020) 11.0)))
 (let (($x1032 (or (and (or $x48 (<= ?x1225 8.0)) (or $x1663 (<= ?x1160 2.0))) (and (or (<= ?x337 ?x540) (<= ?x1313 6.0)) (and $x915 $x3061)))))
 (let ((?x1981 (+ (+ (+ ?x267 (* (- 16.0) ?x1245)) (* 12.0 |v1:10|)) (* 5.0 ?x1245))))
 (let ((?x2560 (* 19.0 ?x2377)))
 (let (($x1584 (<= (+ (+ (+ |v1:10| (* 9.0 |v3:8|)) (* (- 16.0) |v1:10|)) ?x2560) 3.0)))
 (let ((?x2796 (+ (+ (+ (* 8.0 |v7:4|) (* (- 18.0) ?x2126)) (* ?x805 (rval2 |v8:3_st|))) (* ?x520 ?x314))))
 (let (($x408 (<= (+ (+ (+ ?x300 (* 12.0 (rval2 |v8:3_st|))) ?x2560) (* (- 19.0) |v7:4|)) 8.0)))
 (let ((?x1188 (* 16.0 ?x2377)))
 (let (($x3013 (<= (+ (+ (+ (* 16.0 ?x314) (* ?x724 ?x1245)) (* 13.0 ?x2126)) ?x1188) ?x113)))
 (let ((?x900 (* 3.0 |v3:8|)))
 (let ((?x2301 (+ (+ (+ (* (- 19.0) ?x2859) (* ?x2106 (rval2 |v8:3_st|))) (* 7.0 ?x314)) ?x900)))
 (let ((?x120 (+ (+ (+ ?x314 (* (- 2.0) ?x2377)) (* ?x29 |v9:2|)) (* ?x520 (rval2 |v8:3_st|)))))
 (let (($x1354 (and (and (and (<= ?x120 18.0) (<= ?x2301 12.0)) (and $x3013 $x408)) (or (<= ?x2796 7.0) (and $x1584 (<= ?x1981 8.0))))))
 (let ((?x920 (+ (+ (+ (* ?x1852 ?x2859) (* 18.0 |v11:0|)) (* (- 19.0) ?x2859)) (* (- 2.0) |v9:2|))))
 (let ((?x1057 (- 16.0)))
 (let ((?x2516 (* ?x1057 ?x1245)))
 (let (($x580 (<= (+ (+ (+ (* 13.0 ?x2859) (* ?x540 |v9:2|)) (* ?x2028 |v9:2|)) ?x2516) 2.0)))
 (let ((?x591 (rval2 |v8:3_st|)))
 (let ((?x2382 (* ?x1852 ?x591)))
 (let (($x638 (<= (+ (+ (+ (* ?x1933 |v9:2|) (* 6.0 |v1:10|)) (* (- 18.0) |v1:10|)) ?x2382) ?x2220)))
 (let ((?x784 (+ (+ (+ (* ?x195 ?x314) (* 4.0 ?x2126)) (* 20.0 ?x2859)) (* 11.0 ?x314))))
 (let ((?x206 (+ (+ (+ (* ?x724 ?x2859) (* ?x805 |v3:8|)) (* 7.0 ?x2126)) (* ?x1541 |v3:8|))))
 (let ((?x1459 (+ (+ (+ (* 18.0 ?x2377) (* ?x2106 |v1:10|)) (* ?x724 ?x314)) (* 8.0 |v11:0|))))
 (let ((?x834 (+ (+ (+ (* ?x520 |v3:8|) (* ?x1541 ?x2859)) (* (- 18.0) |v5:6|)) (* ?x520 |v7:4|))))
 (let (($x1348 (and (and (<= ?x834 9.0) (and (<= ?x1459 0.0) (<= ?x206 0.0))) (and (or (<= ?x784 ?x1933) $x638) (or $x580 (<= ?x920 ?x2028))))))
 (let ((?x2519 (* 10.0 ?x2377)))
 (let (($x2660 (<= (+ (+ (+ (* 3.0 ?x1245) (* ?x1471 |v3:8|)) (* 8.0 |v1:10|)) ?x2519) 7.0)))
 (let ((?x1218 (- 2.0)))
 (let (($x688 (<= (+ (+ (+ (* ?x1057 ?x591) ?x2382) (* 7.0 ?x2126)) (* ?x2106 ?x591)) ?x1218)))
 (let (($x462 (<= (+ (+ (+ (* 4.0 ?x591) ?x93) (* ?x29 ?x591)) (* ?x805 ?x2126)) 20.0)))
 (let ((?x2591 (+ (+ (+ (* 6.0 |v5:6|) (* ?x1218 ?x2859)) (* ?x540 ?x2377)) (* 0.0 |v1:10|))))
 (let ((?x2234 (+ (+ (+ (* ?x724 |v11:0|) (* 18.0 ?x2859)) (* ?x2220 |v1:10|)) (* ?x540 ?x2859))))
 (let ((?x2453 (* ?x2220 |v3:8|)))
 (let ((?x2536 (+ (+ (+ (* 20.0 |v3:8|) (* (- 18.0) ?x314)) (* 16.0 |v7:4|)) ?x2453)))
 (let ((?x505 (* 13.0 |v11:0|)))
 (let (($x1222 (<= (+ (+ (+ (* ?x113 |v1:10|) (* 6.0 |v9:2|)) (* ?x1057 ?x2859)) ?x505) ?x724)))
 (let (($x1223 (<= (+ (+ (+ (* 5.0 |v11:0|) (* 2.0 ?x2126)) (* ?x1852 |v3:8|)) ?x2519) ?x1218)))
 (let (($x211 (and (or (and $x1223 $x1222) (and (<= ?x2536 ?x2220) (<= ?x2234 ?x1541))) (and (or (<= ?x2591 11.0) $x462) (and $x688 $x2660)))))
 (let (($x679 (or (or (or $x211 $x1348) (and $x1354 $x1032)) (and $x2443 (and (or (and (<= ?x2863 7.0) $x2644) $x918) $x55)))))
 (let (($x1423 (not (= |v0:11_st| (RMk1 val!2111)))))
 (let (($x937 (not (= |v2:9_st| (RMk1 val!2110)))))
 (let (($x1277 (not (= |v4:7_st| (RMk1 val!2109)))))
 (let (($x1151 (not (= |v6:5_st| (RMk1 val!2108)))))
 (let (($x1011 (not (= |v8:3_st| (RMk1 val!2107)))))
 (let (($x439 (not (= |v10:1_st| (RMk1 val!2106)))))
 (and $x439 $x1011 $x1151 $x1277 $x937 $x1423 $x679)))))))))))))))))))))))))))))))))))))))))))))))))))))))))))))))))))))))))))))))))))))))))))))))))))))))))))))))))))))))))))))))))))))
 )
 )
 )
 )
 )
 )
 )
 )
 )
 )
 )
 )
(check-sat)
